30305
12,16,71,95,281,445,684,729,772,961,964,1019,1059,1068,1248,1414,1521,1710,1925,2118,2131,2256,2488,2722,2829,2858,2881,3029,3067,3166,3172,3202,3207,3248,3281,3360,3416,3436,3732,3912,4035,4044,4352,4375,4383,4392,4454,4484,4600,4640,4738,4746,4844,4917,4942
